61
150
105	3
104	1
103	2
101	3
99	1
98	1
96	1
95	2
94	1
93	1
91	1
90	1
86	2
84	1
83	1
82	2
80	1
78	1
77	2
76	2
75	1
73	3
71	2
69	1
68	2
67	3
64	1
62	2
60	3
57	3
56	1
54	1
53	1
52	1
51	1
50	2
49	2
48	1
47	1
46	2
45	1
44	1
43	3
42	2
40	1
37	2
35	2
34	1
32	1
31	2
30	1
26	1
25	1
24	1
23	3
21	1
20	3
19	3
18	2
17	2
15	2
